0	0	0
11	-3	2
55	-17	12
-21	-18	14
18	-13	2
-21	-23	17
5	33	20
23	-33	2
30	14	26
12	-33	7
59	23	24
6	-57	23
31	-34	13
-11	-61	25
-23	-44	20
74	-62	3
51	-53	18
15	-40	23
38	28	6
72	-54	2
3	24	13
-10	-47	22
28	-14	3
71	-42	6
6	-57	7
-6	-23	1
58	27	18
26	16	18
24	-14	10
58	10	2
40	-1	9
10	15	10
59	-57	8
-21	14	30
-6	-55	16
29	23	23
64	-12	2
53	-12	18
34	26	22
-12	-19	1
46	25	8
12	-46	4
61	-40	26
69	-33	21
44	4	2
47	-29	15
32	10	25
13	-26	22
54	-43	19
64	6	3
71	-21	3
20	8	5
-6	-62	13
